17	4
16	14	15	13	
0	0	0	0	0	3	2	3	4	
10	9	9	8	4	2	7	13	
10	3	9	5	10	3	14	17	17	
10	6	5	5	9	3	5	8	17	
5	5	1	6	7	3	6	9	17	
150	1	7	6	6	3	7	14	17	
125	2	7	7	3	2	16	17	
250	9	9	3	2	3	10	14	17	
25	4	6	1	9	1	17	
50	2	7	9	3	2	11	17	
25	6	5	9	2	3	12	15	17	
125	9	3	10	4	1	17	
7	9	3	7	8	2	16	17	
10	6	2	7	3	2	16	17	
1	1	7	5	8	1	17	
9	3	8	4	10	2	17	17	
0	0	0	0	0	0	
